c Software verification instances generated by
c Calysto static checker. For more information
c contact Domagoj Babic (Google for my email).
c Verified property:
c NULL ptr dereference check
c Location in code: /work/benchmarks/SOURCES/HyperSAT/datas.h:1003
p cnf 404 972
1 0 
-2 0 
-35 0 
-36 0 
-37 0 
-38 0 
-39 0 
-40 0 
-41 0 
-42 0 
-43 0 
-44 0 
-45 0 
-46 0 
-47 0 
-48 0 
-49 0 
-50 0 
-51 0 
-52 0 
-53 0 
-54 0 
-55 0 
-56 0 
-57 0 
-58 0 
-59 0 
-60 0 
-61 0 
-62 0 
-63 0 
-64 0 
-65 0 
-66 0 
231 0 
-404 0 
3 68 0
-3 -35 68 0
-3 -68 0
3 -35 -68 0
4 69 0
-4 -36 69 0
-4 -69 0
4 -36 -69 0
5 70 0
-5 -37 70 0
-5 -70 0
5 -37 -70 0
6 71 0
-6 -38 71 0
-6 -71 0
6 -38 -71 0
7 72 0
-7 -39 72 0
-7 -72 0
7 -39 -72 0
8 73 0
-8 -40 73 0
-8 -73 0
8 -40 -73 0
9 74 0
-9 -41 74 0
-9 -74 0
9 -41 -74 0
10 75 0
-10 -42 75 0
-10 -75 0
10 -42 -75 0
11 76 0
-11 -43 76 0
-11 -76 0
11 -43 -76 0
12 77 0
-12 -44 77 0
-12 -77 0
12 -44 -77 0
13 78 0
-13 -45 78 0
-13 -78 0
13 -45 -78 0
14 79 0
-14 -46 79 0
-14 -79 0
14 -46 -79 0
15 80 0
-15 -47 80 0
-15 -80 0
15 -47 -80 0
16 81 0
-16 -48 81 0
-16 -81 0
16 -48 -81 0
17 82 0
-17 -49 82 0
-17 -82 0
17 -49 -82 0
18 83 0
-18 -50 83 0
-18 -83 0
18 -50 -83 0
19 84 0
-19 -51 84 0
-19 -84 0
19 -51 -84 0
20 85 0
-20 -52 85 0
-20 -85 0
20 -52 -85 0
21 86 0
-21 -53 86 0
-21 -86 0
21 -53 -86 0
22 87 0
-22 -54 87 0
-22 -87 0
22 -54 -87 0
23 88 0
-23 -55 88 0
-23 -88 0
23 -55 -88 0
24 89 0
-24 -56 89 0
-24 -89 0
24 -56 -89 0
25 90 0
-25 -57 90 0
-25 -90 0
25 -57 -90 0
26 91 0
-26 -58 91 0
-26 -91 0
26 -58 -91 0
27 92 0
-27 -59 92 0
-27 -92 0
27 -59 -92 0
28 93 0
-28 -60 93 0
-28 -93 0
28 -60 -93 0
29 94 0
-29 -61 94 0
-29 -94 0
29 -61 -94 0
30 95 0
-30 -62 95 0
-30 -95 0
30 -62 -95 0
31 96 0
-31 -63 96 0
-31 -96 0
31 -63 -96 0
32 97 0
-32 -64 97 0
-32 -97 0
32 -64 -97 0
33 98 0
-33 -65 98 0
-33 -98 0
33 -65 -98 0
34 99 0
-34 -66 99 0
-34 -99 0
34 -66 -99 0
-68 100 0
1 -100 0
68 -100 0
-69 -100 101 0
100 -101 0
69 -101 0
-70 -101 102 0
101 -102 0
70 -102 0
-71 -102 103 0
102 -103 0
71 -103 0
-72 -103 104 0
103 -104 0
72 -104 0
-73 -104 105 0
104 -105 0
73 -105 0
-74 -105 106 0
105 -106 0
74 -106 0
-75 -106 107 0
106 -107 0
75 -107 0
-76 -107 108 0
107 -108 0
76 -108 0
-77 -108 109 0
108 -109 0
77 -109 0
-78 -109 110 0
109 -110 0
78 -110 0
-79 -110 111 0
110 -111 0
79 -111 0
-80 -111 112 0
111 -112 0
80 -112 0
-81 -112 113 0
112 -113 0
81 -113 0
-82 -113 114 0
113 -114 0
82 -114 0
-83 -114 115 0
114 -115 0
83 -115 0
-84 -115 116 0
115 -116 0
84 -116 0
-85 -116 117 0
116 -117 0
85 -117 0
-86 -117 118 0
117 -118 0
86 -118 0
-87 -118 119 0
118 -119 0
87 -119 0
-88 -119 120 0
119 -120 0
88 -120 0
-89 -120 121 0
120 -121 0
89 -121 0
-90 -121 122 0
121 -122 0
90 -122 0
-91 -122 123 0
122 -123 0
91 -123 0
-92 -123 124 0
123 -124 0
92 -124 0
-93 -124 125 0
124 -125 0
93 -125 0
-94 -125 126 0
125 -126 0
94 -126 0
-95 -126 127 0
126 -127 0
95 -127 0
-96 -127 128 0
127 -128 0
96 -128 0
-97 -128 129 0
128 -129 0
97 -129 0
-98 -129 130 0
129 -130 0
98 -130 0
-99 -130 131 0
130 -131 0
99 -131 0
-67 131 0
67 -131 0
132 165 0
-35 -132 165 0
-132 -165 0
-35 132 -165 0
133 166 0
-36 -133 166 0
-133 -166 0
-36 133 -166 0
134 167 0
-37 -134 167 0
-134 -167 0
-37 134 -167 0
135 168 0
-38 -135 168 0
-135 -168 0
-38 135 -168 0
136 169 0
-39 -136 169 0
-136 -169 0
-39 136 -169 0
137 170 0
-40 -137 170 0
-137 -170 0
-40 137 -170 0
138 171 0
-41 -138 171 0
-138 -171 0
-41 138 -171 0
139 172 0
-42 -139 172 0
-139 -172 0
-42 139 -172 0
140 173 0
-43 -140 173 0
-140 -173 0
-43 140 -173 0
141 174 0
-44 -141 174 0
-141 -174 0
-44 141 -174 0
142 175 0
-45 -142 175 0
-142 -175 0
-45 142 -175 0
143 176 0
-46 -143 176 0
-143 -176 0
-46 143 -176 0
144 177 0
-47 -144 177 0
-144 -177 0
-47 144 -177 0
145 178 0
-48 -145 178 0
-145 -178 0
-48 145 -178 0
146 179 0
-49 -146 179 0
-146 -179 0
-49 146 -179 0
147 180 0
-50 -147 180 0
-147 -180 0
-50 147 -180 0
148 181 0
-51 -148 181 0
-148 -181 0
-51 148 -181 0
149 182 0
-52 -149 182 0
-149 -182 0
-52 149 -182 0
150 183 0
-53 -150 183 0
-150 -183 0
-53 150 -183 0
151 184 0
-54 -151 184 0
-151 -184 0
-54 151 -184 0
152 185 0
-55 -152 185 0
-152 -185 0
-55 152 -185 0
153 186 0
-56 -153 186 0
-153 -186 0
-56 153 -186 0
154 187 0
-57 -154 187 0
-154 -187 0
-57 154 -187 0
155 188 0
-58 -155 188 0
-155 -188 0
-58 155 -188 0
156 189 0
-59 -156 189 0
-156 -189 0
-59 156 -189 0
157 190 0
-60 -157 190 0
-157 -190 0
-60 157 -190 0
158 191 0
-61 -158 191 0
-158 -191 0
-61 158 -191 0
159 192 0
-62 -159 192 0
-159 -192 0
-62 159 -192 0
160 193 0
-63 -160 193 0
-160 -193 0
-63 160 -193 0
161 194 0
-64 -161 194 0
-161 -194 0
-64 161 -194 0
162 195 0
-65 -162 195 0
-162 -195 0
-65 162 -195 0
163 196 0
-66 -163 196 0
-163 -196 0
-66 163 -196 0
-165 197 0
1 -197 0
165 -197 0
-166 -197 198 0
197 -198 0
166 -198 0
-167 -198 199 0
198 -199 0
167 -199 0
-168 -199 200 0
199 -200 0
168 -200 0
-169 -200 201 0
200 -201 0
169 -201 0
-170 -201 202 0
201 -202 0
170 -202 0
-171 -202 203 0
202 -203 0
171 -203 0
-172 -203 204 0
203 -204 0
172 -204 0
-173 -204 205 0
204 -205 0
173 -205 0
-174 -205 206 0
205 -206 0
174 -206 0
-175 -206 207 0
206 -207 0
175 -207 0
-176 -207 208 0
207 -208 0
176 -208 0
-177 -208 209 0
208 -209 0
177 -209 0
-178 -209 210 0
209 -210 0
178 -210 0
-179 -210 211 0
210 -211 0
179 -211 0
-180 -211 212 0
211 -212 0
180 -212 0
-181 -212 213 0
212 -213 0
181 -213 0
-182 -213 214 0
213 -214 0
182 -214 0
-183 -214 215 0
214 -215 0
183 -215 0
-184 -215 216 0
215 -216 0
184 -216 0
-185 -216 217 0
216 -217 0
185 -217 0
-186 -217 218 0
217 -218 0
186 -218 0
-187 -218 219 0
218 -219 0
187 -219 0
-188 -219 220 0
219 -220 0
188 -220 0
-189 -220 221 0
220 -221 0
189 -221 0
-190 -221 222 0
221 -222 0
190 -222 0
-191 -222 223 0
222 -223 0
191 -223 0
-192 -223 224 0
223 -224 0
192 -224 0
-193 -224 225 0
224 -225 0
193 -225 0
-194 -225 226 0
225 -226 0
194 -226 0
-195 -226 227 0
226 -227 0
195 -227 0
-196 -227 228 0
227 -228 0
196 -228 0
-164 228 0
164 -228 0
-164 -229 230 0
164 -230 0
229 -230 0
-164 -230 232 0
-164 230 -232 0
164 232 0
164 231 -232 0
-67 -232 233 0
232 -233 0
67 -233 0
-233 -234 235 0
233 -235 0
234 -235 0
-67 -235 236 0
-67 235 -236 0
67 -232 236 0
67 232 -236 0
237 270 0
-35 -237 270 0
-237 -270 0
-35 237 -270 0
238 271 0
-36 -238 271 0
-238 -271 0
-36 238 -271 0
239 272 0
-37 -239 272 0
-239 -272 0
-37 239 -272 0
240 273 0
-38 -240 273 0
-240 -273 0
-38 240 -273 0
241 274 0
-39 -241 274 0
-241 -274 0
-39 241 -274 0
242 275 0
-40 -242 275 0
-242 -275 0
-40 242 -275 0
243 276 0
-41 -243 276 0
-243 -276 0
-41 243 -276 0
244 277 0
-42 -244 277 0
-244 -277 0
-42 244 -277 0
245 278 0
-43 -245 278 0
-245 -278 0
-43 245 -278 0
246 279 0
-44 -246 279 0
-246 -279 0
-44 246 -279 0
247 280 0
-45 -247 280 0
-247 -280 0
-45 247 -280 0
248 281 0
-46 -248 281 0
-248 -281 0
-46 248 -281 0
249 282 0
-47 -249 282 0
-249 -282 0
-47 249 -282 0
250 283 0
-48 -250 283 0
-250 -283 0
-48 250 -283 0
251 284 0
-49 -251 284 0
-251 -284 0
-49 251 -284 0
252 285 0
-50 -252 285 0
-252 -285 0
-50 252 -285 0
253 286 0
-51 -253 286 0
-253 -286 0
-51 253 -286 0
254 287 0
-52 -254 287 0
-254 -287 0
-52 254 -287 0
255 288 0
-53 -255 288 0
-255 -288 0
-53 255 -288 0
256 289 0
-54 -256 289 0
-256 -289 0
-54 256 -289 0
257 290 0
-55 -257 290 0
-257 -290 0
-55 257 -290 0
258 291 0
-56 -258 291 0
-258 -291 0
-56 258 -291 0
259 292 0
-57 -259 292 0
-259 -292 0
-57 259 -292 0
260 293 0
-58 -260 293 0
-260 -293 0
-58 260 -293 0
261 294 0
-59 -261 294 0
-261 -294 0
-59 261 -294 0
262 295 0
-60 -262 295 0
-262 -295 0
-60 262 -295 0
263 296 0
-61 -263 296 0
-263 -296 0
-61 263 -296 0
264 297 0
-62 -264 297 0
-264 -297 0
-62 264 -297 0
265 298 0
-63 -265 298 0
-265 -298 0
-63 265 -298 0
266 299 0
-64 -266 299 0
-266 -299 0
-64 266 -299 0
267 300 0
-65 -267 300 0
-267 -300 0
-65 267 -300 0
268 301 0
-66 -268 301 0
-268 -301 0
-66 268 -301 0
-270 302 0
1 -302 0
270 -302 0
-271 -302 303 0
302 -303 0
271 -303 0
-272 -303 304 0
303 -304 0
272 -304 0
-273 -304 305 0
304 -305 0
273 -305 0
-274 -305 306 0
305 -306 0
274 -306 0
-275 -306 307 0
306 -307 0
275 -307 0
-276 -307 308 0
307 -308 0
276 -308 0
-277 -308 309 0
308 -309 0
277 -309 0
-278 -309 310 0
309 -310 0
278 -310 0
-279 -310 311 0
310 -311 0
279 -311 0
-280 -311 312 0
311 -312 0
280 -312 0
-281 -312 313 0
312 -313 0
281 -313 0
-282 -313 314 0
313 -314 0
282 -314 0
-283 -314 315 0
314 -315 0
283 -315 0
-284 -315 316 0
315 -316 0
284 -316 0
-285 -316 317 0
316 -317 0
285 -317 0
-286 -317 318 0
317 -318 0
286 -318 0
-287 -318 319 0
318 -319 0
287 -319 0
-288 -319 320 0
319 -320 0
288 -320 0
-289 -320 321 0
320 -321 0
289 -321 0
-290 -321 322 0
321 -322 0
290 -322 0
-291 -322 323 0
322 -323 0
291 -323 0
-292 -323 324 0
323 -324 0
292 -324 0
-293 -324 325 0
324 -325 0
293 -325 0
-294 -325 326 0
325 -326 0
294 -326 0
-295 -326 327 0
326 -327 0
295 -327 0
-296 -327 328 0
327 -328 0
296 -328 0
-297 -328 329 0
328 -329 0
297 -329 0
-298 -329 330 0
329 -330 0
298 -330 0
-299 -330 331 0
330 -331 0
299 -331 0
-300 -331 332 0
331 -332 0
300 -332 0
-301 -332 333 0
332 -333 0
301 -333 0
-269 333 0
269 -333 0
-269 -334 335 0
269 -335 0
334 -335 0
-269 -335 336 0
-269 335 -336 0
269 336 0
231 269 -336 0
-236 -336 337 0
236 -337 0
336 -337 0
132 340 0
-35 -132 340 0
-132 -340 0
-35 132 -340 0
133 341 0
-36 -133 341 0
-133 -341 0
-36 133 -341 0
134 342 0
-37 -134 342 0
-134 -342 0
-37 134 -342 0
135 343 0
-38 -135 343 0
-135 -343 0
-38 135 -343 0
136 344 0
-39 -136 344 0
-136 -344 0
-39 136 -344 0
137 345 0
-40 -137 345 0
-137 -345 0
-40 137 -345 0
138 346 0
-41 -138 346 0
-138 -346 0
-41 138 -346 0
139 347 0
-42 -139 347 0
-139 -347 0
-42 139 -347 0
140 348 0
-43 -140 348 0
-140 -348 0
-43 140 -348 0
141 349 0
-44 -141 349 0
-141 -349 0
-44 141 -349 0
142 350 0
-45 -142 350 0
-142 -350 0
-45 142 -350 0
143 351 0
-46 -143 351 0
-143 -351 0
-46 143 -351 0
144 352 0
-47 -144 352 0
-144 -352 0
-47 144 -352 0
145 353 0
-48 -145 353 0
-145 -353 0
-48 145 -353 0
146 354 0
-49 -146 354 0
-146 -354 0
-49 146 -354 0
147 355 0
-50 -147 355 0
-147 -355 0
-50 147 -355 0
148 356 0
-51 -148 356 0
-148 -356 0
-51 148 -356 0
149 357 0
-52 -149 357 0
-149 -357 0
-52 149 -357 0
150 358 0
-53 -150 358 0
-150 -358 0
-53 150 -358 0
151 359 0
-54 -151 359 0
-151 -359 0
-54 151 -359 0
152 360 0
-55 -152 360 0
-152 -360 0
-55 152 -360 0
153 361 0
-56 -153 361 0
-153 -361 0
-56 153 -361 0
154 362 0
-57 -154 362 0
-154 -362 0
-57 154 -362 0
155 363 0
-58 -155 363 0
-155 -363 0
-58 155 -363 0
156 364 0
-59 -156 364 0
-156 -364 0
-59 156 -364 0
157 365 0
-60 -157 365 0
-157 -365 0
-60 157 -365 0
158 366 0
-61 -158 366 0
-158 -366 0
-61 158 -366 0
159 367 0
-62 -159 367 0
-159 -367 0
-62 159 -367 0
160 368 0
-63 -160 368 0
-160 -368 0
-63 160 -368 0
161 369 0
-64 -161 369 0
-161 -369 0
-64 161 -369 0
162 370 0
-65 -162 370 0
-162 -370 0
-65 162 -370 0
163 371 0
-66 -163 371 0
-163 -371 0
-66 163 -371 0
-340 372 0
1 -372 0
340 -372 0
-341 -372 373 0
372 -373 0
341 -373 0
-342 -373 374 0
373 -374 0
342 -374 0
-343 -374 375 0
374 -375 0
343 -375 0
-344 -375 376 0
375 -376 0
344 -376 0
-345 -376 377 0
376 -377 0
345 -377 0
-346 -377 378 0
377 -378 0
346 -378 0
-347 -378 379 0
378 -379 0
347 -379 0
-348 -379 380 0
379 -380 0
348 -380 0
-349 -380 381 0
380 -381 0
349 -381 0
-350 -381 382 0
381 -382 0
350 -382 0
-351 -382 383 0
382 -383 0
351 -383 0
-352 -383 384 0
383 -384 0
352 -384 0
-353 -384 385 0
384 -385 0
353 -385 0
-354 -385 386 0
385 -386 0
354 -386 0
-355 -386 387 0
386 -387 0
355 -387 0
-356 -387 388 0
387 -388 0
356 -388 0
-357 -388 389 0
388 -389 0
357 -389 0
-358 -389 390 0
389 -390 0
358 -390 0
-359 -390 391 0
390 -391 0
359 -391 0
-360 -391 392 0
391 -392 0
360 -392 0
-361 -392 393 0
392 -393 0
361 -393 0
-362 -393 394 0
393 -394 0
362 -394 0
-363 -394 395 0
394 -395 0
363 -395 0
-364 -395 396 0
395 -396 0
364 -396 0
-365 -396 397 0
396 -397 0
365 -397 0
-366 -397 398 0
397 -398 0
366 -398 0
-367 -398 399 0
398 -399 0
367 -399 0
-368 -399 400 0
399 -400 0
368 -400 0
-369 -400 401 0
400 -401 0
369 -401 0
-370 -401 402 0
401 -402 0
370 -402 0
-371 -402 403 0
402 -403 0
371 -403 0
-339 403 0
339 -403 0
338 339 0
-338 -339 0
337 404 0
-338 404 0
-337 338 -404 0
